p cnf 82 278
-1 -2 -3 0
1 2 -3 0
-1 2 3 0
1 -2 3 0
4 5 -6 0
-4 -5 -6 0
4 -5 6 0
-4 5 6 0
-7 -3 0
-7 6 0
3 -6 7 0
3 -8 0
-3 -8 0
3 8 -9 0
-3 -8 -9 0
3 -8 9 0
-3 8 9 0
-3 10 -11 0
3 -10 -11 0
-3 -10 11 0
3 10 11 0
-12 -11 0
-12 4 0
11 -4 12 0
13 12 0
13 3 0
-12 -3 -13 0
14 -9 0
14 -13 0
9 13 -14 0
7 14 -15 0
-7 -14 -15 0
7 -14 15 0
-7 14 15 0
3 17 -18 0
-3 -17 -18 0
3 -17 18 0
-3 17 18 0
19 -16 0
19 18 0
16 -18 -19 0
15 19 -20 0
-15 -19 -20 0
15 -19 20 0
-15 19 20 0
-24 -22 0
-24 -23 0
22 23 24 0
-8 -24 -25 0
8 24 -25 0
-8 24 25 0
8 -24 25 0
-21 -25 -26 0
21 25 -26 0
-21 25 26 0
21 -25 26 0
-26 -27 -28 0
26 27 -28 0
-26 27 28 0
26 -27 28 0
-29 -25 0
-29 -1 0
25 1 29 0
-30 -29 0
-30 -18 0
29 18 30 0
28 -30 -31 0
-28 30 -31 0
28 30 31 0
-28 -30 31 0
-32 -20 0
-32 -31 0
20 31 32 0
-34 3 0
-34 10 0
-3 -10 34 0
35 10 0
35 34 0
-10 -34 -35 0
-36 -33 0
-36 35 0
33 -35 36 0
-17 36 -37 0
17 -36 -37 0
-17 -36 37 0
17 36 37 0
38 27 0
38 17 0
-27 -17 -38 0
-39 4 0
-39 -9 0
-4 9 39 0
38 -39 -40 0
-38 39 -40 0
38 39 40 0
-38 -39 40 0
41 -37 0
41 -40 0
37 40 -41 0
6 5 -42 0
-6 -5 -42 0
6 -5 42 0
-6 5 42 0
-43 -2 0
-43 18 0
2 -18 43 0
-42 43 -44 0
42 -43 -44 0
-42 -43 44 0
42 43 44 0
41 44 -45 0
-41 -44 -45 0
41 -44 45 0
-41 44 45 0
-32 45 -46 0
32 -45 -46 0
-32 -45 46 0
32 45 46 0
1 27 -47 0
-1 -27 -47 0
1 -27 47 0
-1 27 47 0
-33 22 -48 0
33 -22 -48 0
-33 -22 48 0
33 22 48 0
-1 -21 -49 0
1 21 -49 0
-1 21 49 0
1 -21 49 0
50 48 0
50 -49 0
-48 49 -50 0
-51 24 0
-51 -49 0
-24 49 51 0
50 -51 -52 0
-50 51 -52 0
50 51 52 0
-50 -51 52 0
53 -47 0
53 -52 0
47 52 -53 0
54 -18 0
54 -38 0
18 38 -54 0
55 -53 0
55 54 0
53 -54 -55 0
56 46 0
56 55 0
-46 -55 -56 0
-57 23 0
-57 -9 0
-23 9 57 0
-58 -24 0
-58 -57 0
24 57 58 0
59 -12 -60 0
-59 12 -60 0
59 12 60 0
-59 -12 60 0
61 24 0
61 -4 0
-24 4 -61 0
-62 60 0
-62 61 0
-60 -61 62 0
35 25 -63 0
-35 -25 -63 0
35 -25 63 0
-35 25 63 0
-64 -62 0
-64 -63 0
62 63 64 0
-65 -58 0
-65 -64 0
58 64 65 0
-66 9 0
-66 -26 0
-9 26 66 0
-66 27 -67 0
66 -27 -67 0
-66 -27 67 0
66 27 67 0
-65 -67 -68 0
65 67 -68 0
-65 67 68 0
65 -67 68 0
-9 -30 -69 0
9 30 -69 0
-9 30 69 0
9 -30 69 0
-70 -69 0
-70 33 0
69 -33 70 0
71 -48 0
71 -59 0
48 59 -71 0
-72 -71 0
-72 5 0
71 -5 72 0
-70 -72 -73 0
70 72 -73 0
-70 72 73 0
70 -72 73 0
-75 -74 0
-75 -11 0
74 11 75 0
76 73 0
76 75 0
-73 -75 -76 0
77 -50 0
77 18 0
50 -18 -77 0
78 21 0
78 -24 0
-21 24 -78 0
-79 77 0
-79 -78 0
-77 78 79 0
80 -76 0
80 -79 0
76 79 -80 0
-81 68 0
-81 80 0
-68 -80 81 0
56 -81 -82 0
-56 81 -82 0
56 81 82 0
-56 -81 82 0
-47 70 0
14 53 80 0
-46 14 -62 0
-79 -20 0
-21 17 34 -65 0
-56 47 34 -73 0
41 -53 -72 42 0
-56 27 -69 51 0
50 -2 -37 0
-78 63 -70 76 55 0
6 56 0
-70 -4 0
67 16 -75 57 0
-4 2 -63 0
-13 41 34 -4 -75 3 0
-36 40 -67 0
-15 -80 0
30 11 62 0
-44 63 0
71 -18 -9 41 0
49 -55 0
63 39 72 52 53 -56 0
-49 -10 -39 0
60 -7 15 -53 0
49 12 -66 -59 61 0
69 -25 -44 75 -67 -18 0
-16 -17 73 -25 0
8 40 0
-30 14 -7 -10 0
62 76 -25 0
65 -24 -28 -47 38 51 0
-42 37 9 15 -55 0
50 -66 -9 -4 0
-41 -3 -29 2 -71 -32 0
-33 -47 27 42 -32 0
69 63 -40 81 0
72 -50 -13 0
81 -70 -32 64 0
-50 -78 73 -52 0
73 2 46 36 34 -71 0
-65 46 -40 0
31 22 0
-8 -61 52 25 -18 0
11 10 -75 43 0
-51 79 80 49 -28 36 0
58 -36 0
82 0
